# Objective value = 1.0456779855170151e+04
I_0_0 1230
I_0_1 1476
I_0_2 1.5030000000000005e+03
I_0_3 1.5620000000000005e+03
I_0_4 1.3510000524591230e+03
I_0_5 1.4709999579408566e+03
I_0_6 1.9459999579408566e+03
I_1_0 126
I_1_1 63
I_1_2 0
I_1_3 126
I_1_4 1.2599995794085848e+02
I_1_5 6.3000042059141535e+01
I_1_6 4.2059141533811423e-05
I_2_0 61
I_2_1 61
I_2_2 61
I_2_3 61
I_2_4 0
I_2_5 61
I_2_6 0
I_3_0 22
I_3_1 11
I_3_2 22
I_3_3 11
I_3_4 22
I_3_5 11
I_3_6 0
I_4_0 110
I_4_1 110
I_4_2 5.5000000000000242e+01
I_4_3 2.4326818192553448e-13
I_4_4 110
I_4_5 55
I_4_6 0
I_5_0 14
I_5_1 14
I_5_2 0
I_5_3 14
I_5_4 1.3999989600019253e+01
I_5_5 14
I_5_6 0
I_6_0 99
I_6_1 99
I_6_2 99
I_6_3 5.1087299430224761e-15
I_6_4 99
I_6_5 99
I_6_6 0
I_7_0 78
I_7_1 39
I_7_2 0
I_7_3 78
I_7_4 39
I_7_5 78
I_7_6 39
I_8_0 21
I_8_1 0
I_8_2 21
I_8_3 21
I_8_4 2.0221608387869354e-15
I_8_5 21
I_8_6 0
I_9_0 64
I_9_1 32
I_9_2 64
I_9_3 3.1999999999999950e+01
I_9_4 6.3999999999999048e+01
I_9_5 3.2000000000000810e+01
I_9_6 8.1001871876651421e-13
I_10_0 160
I_10_1 80
I_10_2 160
I_10_3 80
I_10_4 160
I_10_5 80
I_10_6 0
q_1_0_0 0
q_1_0_1 0
q_1_0_2 189
q_1_0_3 6.2999957940858479e+01
q_1_0_4 8.4118283067623e-05
q_1_0_5 0
q_1_1_0 0
q_1_1_1 0
q_1_1_2 0
q_1_1_3 0
q_1_1_4 0
q_1_1_5 0
q_1_2_0 0
q_1_2_1 0
q_1_2_2 0
q_1_2_3 0
q_1_2_4 0
q_1_2_5 0
q_2_0_0 61
q_2_0_1 0
q_2_0_2 0
q_2_0_3 0
q_2_0_4 3.7569593497717289e-04
q_2_0_5 0
q_2_1_0 0
q_2_1_1 6.0999999999999709e+01
q_2_1_2 6.0999999999999993e+01
q_2_1_3 0
q_2_1_4 1.2199962430406502e+02
q_2_1_5 0
q_2_2_0 0
q_2_2_1 0
q_2_2_2 0
q_2_2_3 0
q_2_2_4 0
q_2_2_5 0
q_3_0_0 0
q_3_0_1 0
q_3_0_2 0
q_3_0_3 0
q_3_0_4 0
q_3_0_5 0
q_3_1_0 0
q_3_1_1 22
q_3_1_2 0
q_3_1_3 2.2000000000000014e+01
q_3_1_4 0
q_3_1_5 0
q_3_2_0 0
q_3_2_1 0
q_3_2_2 0
q_3_2_3 0
q_3_2_4 0
q_3_2_5 0
q_4_0_0 55
q_4_0_1 0
q_4_0_2 0
q_4_0_3 1.1015489405963308e-04
q_4_0_4 0
q_4_0_5 0
q_4_1_0 0
q_4_1_1 0
q_4_1_2 0
q_4_1_3 0
q_4_1_4 0
q_4_1_5 0
q_4_2_0 0
q_4_2_1 0
q_4_2_2 0
q_4_2_3 1.6499988984510571e+02
q_4_2_4 0
q_4_2_5 0
q_5_0_0 14
q_5_0_1 0
q_5_0_2 0
q_5_0_3 0
q_5_0_4 4.9271598035384949e-05
q_5_0_5 0
q_5_1_0 0
q_5_1_1 0
q_5_1_2 28
q_5_1_3 1.3999989600019251e+01
q_5_1_4 1.3999961128382711e+01
q_5_1_5 0
q_5_2_0 0
q_5_2_1 0
q_5_2_2 0
q_5_2_3 0
q_5_2_4 0
q_5_2_5 0
q_6_0_0 99
q_6_0_1 0
q_6_0_2 0
q_6_0_3 0
q_6_0_4 3.0486801281711751e-04
q_6_0_5 0
q_6_1_0 0
q_6_1_1 98.9999999999996
q_6_1_2 0
q_6_1_3 198
q_6_1_4 9.8999695131987181e+01
q_6_1_5 0
q_6_2_0 0
q_6_2_1 0
q_6_2_2 0
q_6_2_3 0
q_6_2_4 0
q_6_2_5 0
q_7_0_0 0
q_7_0_1 0
q_7_0_2 0
q_7_0_3 0
q_7_0_4 7.7999759800959680e+01
q_7_0_5 0
q_7_1_0 0
q_7_1_1 0
q_7_1_2 117
q_7_1_3 0
q_7_1_4 2.4019904032002160e-04
q_7_1_5 0
q_7_2_0 0
q_7_2_1 0
q_7_2_2 0
q_7_2_3 0
q_7_2_4 0
q_7_2_5 0
q_8_0_0 0
q_8_0_1 0
q_8_0_2 0
q_8_0_3 2.0221608387869354e-15
q_8_0_4 4.1999870662055173e+01
q_8_0_5 0
q_8_1_0 0
q_8_1_1 42
q_8_1_2 21
q_8_1_3 0
q_8_1_4 1.2933794575024151e-04
q_8_1_5 0
q_8_2_0 0
q_8_2_1 0
q_8_2_2 0
q_8_2_3 0
q_8_2_4 0
q_8_2_5 0
q_9_0_0 0
q_9_0_1 64
q_9_0_2 0
q_9_0_3 0
q_9_0_4 1.7621459846850485e-12
q_9_0_5 0
q_9_1_0 0
q_9_1_1 0
q_9_1_2 0
q_9_1_3 0
q_9_1_4 0
q_9_1_5 0
q_9_2_0 0
q_9_2_1 0
q_9_2_2 0
q_9_2_3 6.4000000000000085e+01
q_9_2_4 0
q_9_2_5 0
q_10_0_0 0
q_10_0_1 160
q_10_0_2 0
q_10_0_3 1.5999989318313285e+02
q_10_0_4 0
q_10_0_5 0
q_10_1_0 0
q_10_1_1 0
q_10_1_2 0
q_10_1_3 0
q_10_1_4 0
q_10_1_5 0
q_10_2_0 0
q_10_2_1 0
q_10_2_2 0
q_10_2_3 1.0681686714519856e-04
q_10_2_4 0
q_10_2_5 0
y_0_0_0 1
y_0_0_1 1
y_0_0_2 1
y_0_0_3 1
y_0_0_4 1
y_0_0_5 0
y_0_1_0 0
y_0_1_1 1
y_0_1_2 1
y_0_1_3 1
y_0_1_4 1
y_0_1_5 0
y_0_2_0 0
y_0_2_1 0
y_0_2_2 0
y_0_2_3 1
y_0_2_4 0
y_0_2_5 0
y_1_0_0 0
y_1_0_1 0
y_1_0_2 1
y_1_0_3 9.9999933424856069e-01
y_1_0_4 6.6410542117161e-07
y_1_0_5 0
y_1_1_0 0
y_1_1_1 0
y_1_1_2 0
y_1_1_3 0
y_1_1_4 0
y_1_1_5 0
y_1_2_0 0
y_1_2_1 0
y_1_2_2 0
y_1_2_3 0
y_1_2_4 0
y_1_2_5 0
y_2_0_0 1
y_2_0_1 0
y_2_0_2 0
y_2_0_3 0
y_2_0_4 3.0794338932555152e-06
y_2_0_5 0
y_2_1_0 0
y_2_1_1 1
y_2_1_2 1
y_2_1_3 0
y_2_1_4 9.9999692058659850e-01
y_2_1_5 0
y_2_2_0 0
y_2_2_1 0
y_2_2_2 0
y_2_2_3 0
y_2_2_4 0
y_2_2_5 0
y_3_0_0 0
y_3_0_1 0
y_3_0_2 0
y_3_0_3 0
y_3_0_4 0
y_3_0_5 0
y_3_1_0 0
y_3_1_1 1
y_3_1_2 0
y_3_1_3 1
y_3_1_4 0
y_3_1_5 0
y_3_2_0 0
y_3_2_1 0
y_3_2_2 0
y_3_2_3 0
y_3_2_4 0
y_3_2_5 0
y_4_0_0 1
y_4_0_1 0
y_4_0_2 0
y_4_0_3 6.6757511551292780e-07
y_4_0_4 0
y_4_0_5 0
y_4_1_0 0
y_4_1_1 0
y_4_1_2 0
y_4_1_3 0
y_4_1_4 0
y_4_1_5 0
y_4_2_0 0
y_4_2_1 0
y_4_2_2 0
y_4_2_3 9.9999933243700589e-01
y_4_2_4 0
y_4_2_5 0
y_5_0_0 1
y_5_0_1 0
y_5_0_2 0
y_5_0_3 0
y_5_0_4 3.0733082101954056e-06
y_5_0_5 0
y_5_1_0 0
y_5_1_1 0
y_5_1_2 1
y_5_1_3 9.9999925911717935e-01
y_5_1_4 9.9999692249807015e-01
y_5_1_5 0
y_5_2_0 0
y_5_2_1 0
y_5_2_2 0
y_5_2_3 0
y_5_2_4 0
y_5_2_5 0
y_6_0_0 1
y_6_0_1 0
y_6_0_2 0
y_6_0_3 0
y_6_0_4 3.0720172265888488e-06
y_6_0_5 0
y_6_1_0 0
y_6_1_1 1
y_6_1_2 0
y_6_1_3 1
y_6_1_4 9.9999692223822589e-01
y_6_1_5 0
y_6_2_0 0
y_6_2_1 0
y_6_2_2 0
y_6_2_3 0
y_6_2_4 0
y_6_2_5 0
y_7_0_0 0
y_7_0_1 0
y_7_0_2 0
y_7_0_3 0
y_7_0_4 9.9999692200134671e-01
y_7_0_5 0
y_7_1_0 0
y_7_1_1 0
y_7_1_2 1
y_7_1_3 0
y_7_1_4 3.0769107733336075e-06
y_7_1_5 0
y_7_2_0 0
y_7_2_1 0
y_7_2_2 0
y_7_2_3 0
y_7_2_4 0
y_7_2_5 0
y_8_0_0 0
y_8_0_1 0
y_8_0_2 0
y_8_0_3 0
y_8_0_4 9.9999692069178991e-01
y_8_0_5 0
y_8_1_0 0
y_8_1_1 1
y_8_1_2 1
y_8_1_3 0
y_8_1_4 3.0793558511962264e-06
y_8_1_5 0
y_8_2_0 0
y_8_2_1 0
y_8_2_2 0
y_8_2_3 0
y_8_2_4 0
y_8_2_5 0
y_9_0_0 0
y_9_0_1 1
y_9_0_2 0
y_9_0_3 0
y_9_0_4 0
y_9_0_5 0
y_9_1_0 0
y_9_1_1 0
y_9_1_2 0
y_9_1_3 0
y_9_1_4 0
y_9_1_5 0
y_9_2_0 0
y_9_2_1 0
y_9_2_2 0
y_9_2_3 1
y_9_2_4 0
y_9_2_5 0
y_10_0_0 0
y_10_0_1 1
y_10_0_2 0
y_10_0_3 9.9999933388979734e-01
y_10_0_4 0
y_10_0_5 0
y_10_1_0 0
y_10_1_1 0
y_10_1_2 0
y_10_1_3 0
y_10_1_4 0
y_10_1_5 0
y_10_2_0 0
y_10_2_1 0
y_10_2_2 0
y_10_2_3 6.6311672145083026e-07
y_10_2_4 0
y_10_2_5 0
x_0_1_0_0 0
x_0_1_0_1 0
x_0_1_0_2 2
x_0_1_0_3 9.9999933271704067e-01
x_0_1_0_4 1.3331622746646853e-06
x_0_1_0_5 0
x_0_1_1_0 0
x_0_1_1_1 0
x_0_1_1_2 0
x_0_1_1_3 0
x_0_1_1_4 0
x_0_1_1_5 0
x_0_1_2_0 0
x_0_1_2_1 0
x_0_1_2_2 0
x_0_1_2_3 0
x_0_1_2_4 0
x_0_1_2_5 0
x_0_2_0_0 1
x_0_2_0_1 0
x_0_2_0_2 0
x_0_2_0_3 0
x_0_2_0_4 2.4118694557505055e-06
x_0_2_0_5 0
x_0_2_1_0 0
x_0_2_1_1 0
x_0_2_1_2 0
x_0_2_1_3 0
x_0_2_1_4 9.9999692078941560e-01
x_0_2_1_5 0
x_0_2_2_0 0
x_0_2_2_1 0
x_0_2_2_2 0
x_0_2_2_3 0
x_0_2_2_4 0
x_0_2_2_5 0
x_0_3_0_0 0
x_0_3_0_1 0
x_0_3_0_2 0
x_0_3_0_3 0
x_0_3_0_4 0
x_0_3_0_5 0
x_0_3_1_0 0
x_0_3_1_1 1
x_0_3_1_2 0
x_0_3_1_3 1
x_0_3_1_4 0
x_0_3_1_5 0
x_0_3_2_0 0
x_0_3_2_1 0
x_0_3_2_2 0
x_0_3_2_3 0
x_0_3_2_4 0
x_0_3_2_5 0
x_0_4_0_0 1
x_0_4_0_1 0
x_0_4_0_2 0
x_0_4_0_3 1.3325613059911809e-06
x_0_4_0_4 0
x_0_4_0_5 0
x_0_4_1_0 0
x_0_4_1_1 0
x_0_4_1_2 0
x_0_4_1_3 0
x_0_4_1_4 0
x_0_4_1_5 0
x_0_4_2_0 0
x_0_4_2_1 0
x_0_4_2_2 0
x_0_4_2_3 9.9999933286918863e-01
x_0_4_2_4 0
x_0_4_2_5 0
x_0_5_0_0 0
x_0_5_0_1 0
x_0_5_0_2 0
x_0_5_0_3 0
x_0_5_0_4 3.0794748768620723e-06
x_0_5_0_5 0
x_0_5_1_0 0
x_0_5_1_1 0
x_0_5_1_2 1
x_0_5_1_3 9.9999925757624875e-01
x_0_5_1_4 9.9999692095713955e-01
x_0_5_1_5 0
x_0_5_2_0 0
x_0_5_2_1 0
x_0_5_2_2 0
x_0_5_2_3 0
x_0_5_2_4 0
x_0_5_2_5 0
x_0_6_0_0 0
x_0_6_0_1 0
x_0_6_0_2 0
x_0_6_0_3 0
x_0_6_0_4 0
x_0_6_0_5 0
x_0_6_1_0 0
x_0_6_1_1 0
x_0_6_1_2 0
x_0_6_1_3 7.3919291894010724e-07
x_0_6_1_4 0
x_0_6_1_5 0
x_0_6_2_0 0
x_0_6_2_1 0
x_0_6_2_2 0
x_0_6_2_3 0
x_0_6_2_4 0
x_0_6_2_5 0
x_0_7_0_0 0
x_0_7_0_1 0
x_0_7_0_2 0
x_0_7_0_3 0
x_0_7_0_4 9.9999625313230334e-01
x_0_7_0_5 0
x_0_7_1_0 0
x_0_7_1_1 0
x_0_7_1_2 0
x_0_7_1_3 0
x_0_7_1_4 3.0771119013114790e-06
x_0_7_1_5 0
x_0_7_2_0 0
x_0_7_2_1 0
x_0_7_2_2 0
x_0_7_2_3 0
x_0_7_2_4 0
x_0_7_2_5 0
x_0_8_0_0 0
x_0_8_0_1 0
x_0_8_0_2 0
x_0_8_0_3 0
x_0_8_0_4 0.999996920895423
x_0_8_0_5 0
x_0_8_1_0 0
x_0_8_1_1 1
x_0_8_1_2 1
x_0_8_1_3 0
x_0_8_1_4 3.0794748768769864e-06
x_0_8_1_5 0
x_0_8_2_0 0
x_0_8_2_1 0
x_0_8_2_2 0
x_0_8_2_3 0
x_0_8_2_4 0
x_0_8_2_5 0
x_0_9_0_0 0
x_0_9_0_1 1
x_0_9_0_2 0
x_0_9_0_3 0
x_0_9_0_4 0
x_0_9_0_5 0
x_0_9_1_0 0
x_0_9_1_1 0
x_0_9_1_2 0
x_0_9_1_3 0
x_0_9_1_4 0
x_0_9_1_5 0
x_0_9_2_0 0
x_0_9_2_1 0
x_0_9_2_2 0
x_0_9_2_3 1
x_0_9_2_4 0
x_0_9_2_5 0
x_0_10_0_0 0
x_0_10_0_1 1
x_0_10_0_2 0
x_0_10_0_3 9.9999933289379794e-01
x_0_10_0_4 0
x_0_10_0_5 0
x_0_10_1_0 0
x_0_10_1_1 0
x_0_10_1_2 0
x_0_10_1_3 0
x_0_10_1_4 0
x_0_10_1_5 0
x_0_10_2_0 0
x_0_10_2_1 0
x_0_10_2_2 0
x_0_10_2_3 6.64794469729353e-07
x_0_10_2_4 0
x_0_10_2_5 0
x_1_2_0_0 0
x_1_2_0_1 0
x_1_2_0_2 0
x_1_2_0_3 0
x_1_2_0_4 0
x_1_2_0_5 0
x_1_2_1_0 0
x_1_2_1_1 0
x_1_2_1_2 0
x_1_2_1_3 0
x_1_2_1_4 0
x_1_2_1_5 0
x_1_2_2_0 0
x_1_2_2_1 0
x_1_2_2_2 0
x_1_2_2_3 0
x_1_2_2_4 0
x_1_2_2_5 0
x_1_3_0_0 0
x_1_3_0_1 0
x_1_3_0_2 0
x_1_3_0_3 0
x_1_3_0_4 0
x_1_3_0_5 0
x_1_3_1_0 0
x_1_3_1_1 0
x_1_3_1_2 0
x_1_3_1_3 0
x_1_3_1_4 0
x_1_3_1_5 0
x_1_3_2_0 0
x_1_3_2_1 0
x_1_3_2_2 0
x_1_3_2_3 0
x_1_3_2_4 0
x_1_3_2_5 0
x_1_4_0_0 0
x_1_4_0_1 0
x_1_4_0_2 0
x_1_4_0_3 0
x_1_4_0_4 0
x_1_4_0_5 0
x_1_4_1_0 0
x_1_4_1_1 0
x_1_4_1_2 0
x_1_4_1_3 0
x_1_4_1_4 0
x_1_4_1_5 0
x_1_4_2_0 0
x_1_4_2_1 0
x_1_4_2_2 0
x_1_4_2_3 0
x_1_4_2_4 0
x_1_4_2_5 0
x_1_5_0_0 0
x_1_5_0_1 0
x_1_5_0_2 0
x_1_5_0_3 0
x_1_5_0_4 0
x_1_5_0_5 0
x_1_5_1_0 0
x_1_5_1_1 0
x_1_5_1_2 0
x_1_5_1_3 0
x_1_5_1_4 0
x_1_5_1_5 0
x_1_5_2_0 0
x_1_5_2_1 0
x_1_5_2_2 0
x_1_5_2_3 0
x_1_5_2_4 0
x_1_5_2_5 0
x_1_6_0_0 0
x_1_6_0_1 0
x_1_6_0_2 0
x_1_6_0_3 0
x_1_6_0_4 0
x_1_6_0_5 0
x_1_6_1_0 0
x_1_6_1_1 0
x_1_6_1_2 0
x_1_6_1_3 0
x_1_6_1_4 0
x_1_6_1_5 0
x_1_6_2_0 0
x_1_6_2_1 0
x_1_6_2_2 0
x_1_6_2_3 0
x_1_6_2_4 0
x_1_6_2_5 0
x_1_7_0_0 0
x_1_7_0_1 0
x_1_7_0_2 0
x_1_7_0_3 0
x_1_7_0_4 0
x_1_7_0_5 0
x_1_7_1_0 0
x_1_7_1_1 0
x_1_7_1_2 0
x_1_7_1_3 0
x_1_7_1_4 0
x_1_7_1_5 0
x_1_7_2_0 0
x_1_7_2_1 0
x_1_7_2_2 0
x_1_7_2_3 0
x_1_7_2_4 0
x_1_7_2_5 0
x_1_8_0_0 0
x_1_8_0_1 0
x_1_8_0_2 0
x_1_8_0_3 0
x_1_8_0_4 0
x_1_8_0_5 0
x_1_8_1_0 0
x_1_8_1_1 0
x_1_8_1_2 0
x_1_8_1_3 0
x_1_8_1_4 0
x_1_8_1_5 0
x_1_8_2_0 0
x_1_8_2_1 0
x_1_8_2_2 0
x_1_8_2_3 0
x_1_8_2_4 0
x_1_8_2_5 0
x_1_9_0_0 0
x_1_9_0_1 0
x_1_9_0_2 0
x_1_9_0_3 0
x_1_9_0_4 0
x_1_9_0_5 0
x_1_9_1_0 0
x_1_9_1_1 0
x_1_9_1_2 0
x_1_9_1_3 0
x_1_9_1_4 0
x_1_9_1_5 0
x_1_9_2_0 0
x_1_9_2_1 0
x_1_9_2_2 0
x_1_9_2_3 0
x_1_9_2_4 0
x_1_9_2_5 0
x_1_10_0_0 0
x_1_10_0_1 0
x_1_10_0_2 0
x_1_10_0_3 0.999999332647324
x_1_10_0_4 0
x_1_10_0_5 0
x_1_10_1_0 0
x_1_10_1_1 0
x_1_10_1_2 0
x_1_10_1_3 0
x_1_10_1_4 0
x_1_10_1_5 0
x_1_10_2_0 0
x_1_10_2_1 0
x_1_10_2_2 0
x_1_10_2_3 0
x_1_10_2_4 0
x_1_10_2_5 0
x_2_3_0_0 0
x_2_3_0_1 0
x_2_3_0_2 0
x_2_3_0_3 0
x_2_3_0_4 0
x_2_3_0_5 0
x_2_3_1_0 0
x_2_3_1_1 0
x_2_3_1_2 0
x_2_3_1_3 0
x_2_3_1_4 0
x_2_3_1_5 0
x_2_3_2_0 0
x_2_3_2_1 0
x_2_3_2_2 0
x_2_3_2_3 0
x_2_3_2_4 0
x_2_3_2_5 0
x_2_4_0_0 0
x_2_4_0_1 0
x_2_4_0_2 0
x_2_4_0_3 0
x_2_4_0_4 0
x_2_4_0_5 0
x_2_4_1_0 0
x_2_4_1_1 0
x_2_4_1_2 0
x_2_4_1_3 0
x_2_4_1_4 0
x_2_4_1_5 0
x_2_4_2_0 0
x_2_4_2_1 0
x_2_4_2_2 0
x_2_4_2_3 0
x_2_4_2_4 0
x_2_4_2_5 0
x_2_5_0_0 0
x_2_5_0_1 0
x_2_5_0_2 0
x_2_5_0_3 0
x_2_5_0_4 0
x_2_5_0_5 0
x_2_5_1_0 0
x_2_5_1_1 0
x_2_5_1_2 1
x_2_5_1_3 0
x_2_5_1_4 0
x_2_5_1_5 0
x_2_5_2_0 0
x_2_5_2_1 0
x_2_5_2_2 0
x_2_5_2_3 0
x_2_5_2_4 0
x_2_5_2_5 0
x_2_6_0_0 1
x_2_6_0_1 0
x_2_6_0_2 0
x_2_6_0_3 0
x_2_6_0_4 3.0768929096489582e-06
x_2_6_0_5 0
x_2_6_1_0 0
x_2_6_1_1 1
x_2_6_1_2 0
x_2_6_1_3 0
x_2_6_1_4 9.9999692143586072e-01
x_2_6_1_5 0
x_2_6_2_0 0
x_2_6_2_1 0
x_2_6_2_2 0
x_2_6_2_3 0
x_2_6_2_4 0
x_2_6_2_5 0
x_2_7_0_0 0
x_2_7_0_1 0
x_2_7_0_2 0
x_2_7_0_3 0
x_2_7_0_4 6.6760542111156689e-07
x_2_7_0_5 0
x_2_7_1_0 0
x_2_7_1_1 0
x_2_7_1_2 1
x_2_7_1_3 0
x_2_7_1_4 0
x_2_7_1_5 0
x_2_7_2_0 0
x_2_7_2_1 0
x_2_7_2_2 0
x_2_7_2_3 0
x_2_7_2_4 0
x_2_7_2_5 0
x_2_8_0_0 0
x_2_8_0_1 0
x_2_8_0_2 0
x_2_8_0_3 0
x_2_8_0_4 0
x_2_8_0_5 0
x_2_8_1_0 0
x_2_8_1_1 1
x_2_8_1_2 0
x_2_8_1_3 0
x_2_8_1_4 0
x_2_8_1_5 0
x_2_8_2_0 0
x_2_8_2_1 0
x_2_8_2_2 0
x_2_8_2_3 0
x_2_8_2_4 0
x_2_8_2_5 0
x_2_9_0_0 0
x_2_9_0_1 0
x_2_9_0_2 0
x_2_9_0_3 0
x_2_9_0_4 0
x_2_9_0_5 0
x_2_9_1_0 0
x_2_9_1_1 0
x_2_9_1_2 0
x_2_9_1_3 0
x_2_9_1_4 0
x_2_9_1_5 0
x_2_9_2_0 0
x_2_9_2_1 0
x_2_9_2_2 0
x_2_9_2_3 0
x_2_9_2_4 0
x_2_9_2_5 0
x_2_10_0_0 0
x_2_10_0_1 0
x_2_10_0_2 0
x_2_10_0_3 0
x_2_10_0_4 0
x_2_10_0_5 0
x_2_10_1_0 0
x_2_10_1_1 0
x_2_10_1_2 0
x_2_10_1_3 0
x_2_10_1_4 0
x_2_10_1_5 0
x_2_10_2_0 0
x_2_10_2_1 0
x_2_10_2_2 0
x_2_10_2_3 0
x_2_10_2_4 0
x_2_10_2_5 0
x_3_4_0_0 0
x_3_4_0_1 0
x_3_4_0_2 0
x_3_4_0_3 0
x_3_4_0_4 0
x_3_4_0_5 0
x_3_4_1_0 0
x_3_4_1_1 0
x_3_4_1_2 0
x_3_4_1_3 0
x_3_4_1_4 0
x_3_4_1_5 0
x_3_4_2_0 0
x_3_4_2_1 0
x_3_4_2_2 0
x_3_4_2_3 0
x_3_4_2_4 0
x_3_4_2_5 0
x_3_5_0_0 0
x_3_5_0_1 0
x_3_5_0_2 0
x_3_5_0_3 0
x_3_5_0_4 0
x_3_5_0_5 0
x_3_5_1_0 0
x_3_5_1_1 0
x_3_5_1_2 0
x_3_5_1_3 0
x_3_5_1_4 0
x_3_5_1_5 0
x_3_5_2_0 0
x_3_5_2_1 0
x_3_5_2_2 0
x_3_5_2_3 0
x_3_5_2_4 0
x_3_5_2_5 0
x_3_6_0_0 0
x_3_6_0_1 0
x_3_6_0_2 0
x_3_6_0_3 0
x_3_6_0_4 0
x_3_6_0_5 0
x_3_6_1_0 0
x_3_6_1_1 1
x_3_6_1_2 0
x_3_6_1_3 1
x_3_6_1_4 0
x_3_6_1_5 0
x_3_6_2_0 0
x_3_6_2_1 0
x_3_6_2_2 0
x_3_6_2_3 0
x_3_6_2_4 0
x_3_6_2_5 0
x_3_7_0_0 0
x_3_7_0_1 0
x_3_7_0_2 0
x_3_7_0_3 0
x_3_7_0_4 0
x_3_7_0_5 0
x_3_7_1_0 0
x_3_7_1_1 0
x_3_7_1_2 0
x_3_7_1_3 0
x_3_7_1_4 0
x_3_7_1_5 0
x_3_7_2_0 0
x_3_7_2_1 0
x_3_7_2_2 0
x_3_7_2_3 0
x_3_7_2_4 0
x_3_7_2_5 0
x_3_8_0_0 0
x_3_8_0_1 0
x_3_8_0_2 0
x_3_8_0_3 0
x_3_8_0_4 0
x_3_8_0_5 0
x_3_8_1_0 0
x_3_8_1_1 0
x_3_8_1_2 0
x_3_8_1_3 0
x_3_8_1_4 0
x_3_8_1_5 0
x_3_8_2_0 0
x_3_8_2_1 0
x_3_8_2_2 0
x_3_8_2_3 0
x_3_8_2_4 0
x_3_8_2_5 0
x_3_9_0_0 0
x_3_9_0_1 0
x_3_9_0_2 0
x_3_9_0_3 0
x_3_9_0_4 0
x_3_9_0_5 0
x_3_9_1_0 0
x_3_9_1_1 0
x_3_9_1_2 0
x_3_9_1_3 0
x_3_9_1_4 0
x_3_9_1_5 0
x_3_9_2_0 0
x_3_9_2_1 0
x_3_9_2_2 0
x_3_9_2_3 0
x_3_9_2_4 0
x_3_9_2_5 0
x_3_10_0_0 0
x_3_10_0_1 0
x_3_10_0_2 0
x_3_10_0_3 0
x_3_10_0_4 0
x_3_10_0_5 0
x_3_10_1_0 0
x_3_10_1_1 0
x_3_10_1_2 0
x_3_10_1_3 0
x_3_10_1_4 0
x_3_10_1_5 0
x_3_10_2_0 0
x_3_10_2_1 0
x_3_10_2_2 0
x_3_10_2_3 0
x_3_10_2_4 0
x_3_10_2_5 0
x_4_5_0_0 1
x_4_5_0_1 0
x_4_5_0_2 0
x_4_5_0_3 0
x_4_5_0_4 0
x_4_5_0_5 0
x_4_5_1_0 0
x_4_5_1_1 0
x_4_5_1_2 0
x_4_5_1_3 0
x_4_5_1_4 0
x_4_5_1_5 0
x_4_5_2_0 0
x_4_5_2_1 0
x_4_5_2_2 0
x_4_5_2_3 0
x_4_5_2_4 0
x_4_5_2_5 0
x_4_6_0_0 0
x_4_6_0_1 0
x_4_6_0_2 0
x_4_6_0_3 0
x_4_6_0_4 0
x_4_6_0_5 0
x_4_6_1_0 0
x_4_6_1_1 0
x_4_6_1_2 0
x_4_6_1_3 0
x_4_6_1_4 0
x_4_6_1_5 0
x_4_6_2_0 0
x_4_6_2_1 0
x_4_6_2_2 0
x_4_6_2_3 0
x_4_6_2_4 0
x_4_6_2_5 0
x_4_7_0_0 0
x_4_7_0_1 0
x_4_7_0_2 0
x_4_7_0_3 0
x_4_7_0_4 0
x_4_7_0_5 0
x_4_7_1_0 0
x_4_7_1_1 0
x_4_7_1_2 0
x_4_7_1_3 0
x_4_7_1_4 0
x_4_7_1_5 0
x_4_7_2_0 0
x_4_7_2_1 0
x_4_7_2_2 0
x_4_7_2_3 0
x_4_7_2_4 0
x_4_7_2_5 0
x_4_8_0_0 0
x_4_8_0_1 0
x_4_8_0_2 0
x_4_8_0_3 0
x_4_8_0_4 0
x_4_8_0_5 0
x_4_8_1_0 0
x_4_8_1_1 0
x_4_8_1_2 0
x_4_8_1_3 0
x_4_8_1_4 0
x_4_8_1_5 0
x_4_8_2_0 0
x_4_8_2_1 0
x_4_8_2_2 0
x_4_8_2_3 0
x_4_8_2_4 0
x_4_8_2_5 0
x_4_9_0_0 0
x_4_9_0_1 0
x_4_9_0_2 0
x_4_9_0_3 0
x_4_9_0_4 0
x_4_9_0_5 0
x_4_9_1_0 0
x_4_9_1_1 0
x_4_9_1_2 0
x_4_9_1_3 0
x_4_9_1_4 0
x_4_9_1_5 0
x_4_9_2_0 0
x_4_9_2_1 0
x_4_9_2_2 0
x_4_9_2_3 9.9999933366617488e-01
x_4_9_2_4 0
x_4_9_2_5 0
x_4_10_0_0 0
x_4_10_0_1 0
x_4_10_0_2 0
x_4_10_0_3 0
x_4_10_0_4 0
x_4_10_0_5 0
x_4_10_1_0 0
x_4_10_1_1 0
x_4_10_1_2 0
x_4_10_1_3 0
x_4_10_1_4 0
x_4_10_1_5 0
x_4_10_2_0 0
x_4_10_2_1 0
x_4_10_2_2 0
x_4_10_2_3 0
x_4_10_2_4 0
x_4_10_2_5 0
x_5_6_0_0 1
x_5_6_0_1 0
x_5_6_0_2 0
x_5_6_0_3 0
x_5_6_0_4 3.0638082101954060e-06
x_5_6_0_5 0
x_5_6_1_0 0
x_5_6_1_1 0
x_5_6_1_2 0
x_5_6_1_3 9.9999925764717690e-01
x_5_6_1_4 9.9999692102806770e-01
x_5_6_1_5 0
x_5_6_2_0 0
x_5_6_2_1 0
x_5_6_2_2 0
x_5_6_2_3 0
x_5_6_2_4 0
x_5_6_2_5 0
x_5_7_0_0 0
x_5_7_0_1 0
x_5_7_0_2 0
x_5_7_0_3 0
x_5_7_0_4 0
x_5_7_0_5 0
x_5_7_1_0 0
x_5_7_1_1 0
x_5_7_1_2 0
x_5_7_1_3 0
x_5_7_1_4 0
x_5_7_1_5 0
x_5_7_2_0 0
x_5_7_2_1 0
x_5_7_2_2 0
x_5_7_2_3 0
x_5_7_2_4 0
x_5_7_2_5 0
x_5_8_0_0 0
x_5_8_0_1 0
x_5_8_0_2 0
x_5_8_0_3 0
x_5_8_0_4 0
x_5_8_0_5 0
x_5_8_1_0 0
x_5_8_1_1 0
x_5_8_1_2 0
x_5_8_1_3 0
x_5_8_1_4 0
x_5_8_1_5 0
x_5_8_2_0 0
x_5_8_2_1 0
x_5_8_2_2 0
x_5_8_2_3 0
x_5_8_2_4 0
x_5_8_2_5 0
x_5_9_0_0 0
x_5_9_0_1 0
x_5_9_0_2 0
x_5_9_0_3 0
x_5_9_0_4 0
x_5_9_0_5 0
x_5_9_1_0 0
x_5_9_1_1 0
x_5_9_1_2 0
x_5_9_1_3 0
x_5_9_1_4 0
x_5_9_1_5 0
x_5_9_2_0 0
x_5_9_2_1 0
x_5_9_2_2 0
x_5_9_2_3 0
x_5_9_2_4 0
x_5_9_2_5 0
x_5_10_0_0 0
x_5_10_0_1 0
x_5_10_0_2 0
x_5_10_0_3 0
x_5_10_0_4 0
x_5_10_0_5 0
x_5_10_1_0 0
x_5_10_1_1 0
x_5_10_1_2 0
x_5_10_1_3 0
x_5_10_1_4 0
x_5_10_1_5 0
x_5_10_2_0 0
x_5_10_2_1 0
x_5_10_2_2 0
x_5_10_2_3 0
x_5_10_2_4 0
x_5_10_2_5 0
x_6_7_0_0 0
x_6_7_0_1 0
x_6_7_0_2 0
x_6_7_0_3 0
x_6_7_0_4 0
x_6_7_0_5 0
x_6_7_1_0 0
x_6_7_1_1 0
x_6_7_1_2 0
x_6_7_1_3 0
x_6_7_1_4 0
x_6_7_1_5 0
x_6_7_2_0 0
x_6_7_2_1 0
x_6_7_2_2 0
x_6_7_2_3 0
x_6_7_2_4 0
x_6_7_2_5 0
x_6_8_0_0 0
x_6_8_0_1 0
x_6_8_0_2 0
x_6_8_0_3 0
x_6_8_0_4 0
x_6_8_0_5 0
x_6_8_1_0 0
x_6_8_1_1 0
x_6_8_1_2 0
x_6_8_1_3 0
x_6_8_1_4 0
x_6_8_1_5 0
x_6_8_2_0 0
x_6_8_2_1 0
x_6_8_2_2 0
x_6_8_2_3 0
x_6_8_2_4 0
x_6_8_2_5 0
x_6_9_0_0 0
x_6_9_0_1 0
x_6_9_0_2 0
x_6_9_0_3 0
x_6_9_0_4 0
x_6_9_0_5 0
x_6_9_1_0 0
x_6_9_1_1 0
x_6_9_1_2 0
x_6_9_1_3 0
x_6_9_1_4 0
x_6_9_1_5 0
x_6_9_2_0 0
x_6_9_2_1 0
x_6_9_2_2 0
x_6_9_2_3 0
x_6_9_2_4 0
x_6_9_2_5 0
x_6_10_0_0 0
x_6_10_0_1 0
x_6_10_0_2 0
x_6_10_0_3 0
x_6_10_0_4 0
x_6_10_0_5 0
x_6_10_1_0 0
x_6_10_1_1 0
x_6_10_1_2 0
x_6_10_1_3 0
x_6_10_1_4 0
x_6_10_1_5 0
x_6_10_2_0 0
x_6_10_2_1 0
x_6_10_2_2 0
x_6_10_2_3 0
x_6_10_2_4 0
x_6_10_2_5 0
x_7_8_0_0 0
x_7_8_0_1 0
x_7_8_0_2 0
x_7_8_0_3 0
x_7_8_0_4 0.999996921003099
x_7_8_0_5 0
x_7_8_1_0 0
x_7_8_1_1 0
x_7_8_1_2 1
x_7_8_1_3 0
x_7_8_1_4 3.0767368255154663e-06
x_7_8_1_5 0
x_7_8_2_0 0
x_7_8_2_1 0
x_7_8_2_2 0
x_7_8_2_3 0
x_7_8_2_4 0
x_7_8_2_5 0
x_7_9_0_0 0
x_7_9_0_1 0
x_7_9_0_2 0
x_7_9_0_3 0
x_7_9_0_4 0
x_7_9_0_5 0
x_7_9_1_0 0
x_7_9_1_1 0
x_7_9_1_2 0
x_7_9_1_3 0
x_7_9_1_4 0
x_7_9_1_5 0
x_7_9_2_0 0
x_7_9_2_1 0
x_7_9_2_2 0
x_7_9_2_3 0
x_7_9_2_4 0
x_7_9_2_5 0
x_7_10_0_0 0
x_7_10_0_1 0
x_7_10_0_2 0
x_7_10_0_3 0
x_7_10_0_4 0
x_7_10_0_5 0
x_7_10_1_0 0
x_7_10_1_1 0
x_7_10_1_2 0
x_7_10_1_3 0
x_7_10_1_4 0
x_7_10_1_5 0
x_7_10_2_0 0
x_7_10_2_1 0
x_7_10_2_2 0
x_7_10_2_3 0
x_7_10_2_4 0
x_7_10_2_5 0
x_8_9_0_0 0
x_8_9_0_1 0
x_8_9_0_2 0
x_8_9_0_3 0
x_8_9_0_4 0
x_8_9_0_5 0
x_8_9_1_0 0
x_8_9_1_1 0
x_8_9_1_2 0
x_8_9_1_3 0
x_8_9_1_4 0
x_8_9_1_5 0
x_8_9_2_0 0
x_8_9_2_1 0
x_8_9_2_2 0
x_8_9_2_3 0
x_8_9_2_4 0
x_8_9_2_5 0
x_8_10_0_0 0
x_8_10_0_1 0
x_8_10_0_2 0
x_8_10_0_3 0
x_8_10_0_4 0
x_8_10_0_5 0
x_8_10_1_0 0
x_8_10_1_1 0
x_8_10_1_2 0
x_8_10_1_3 0
x_8_10_1_4 0
x_8_10_1_5 0
x_8_10_2_0 0
x_8_10_2_1 0
x_8_10_2_2 0
x_8_10_2_3 0
x_8_10_2_4 0
x_8_10_2_5 0
x_9_10_0_0 0
x_9_10_0_1 1
x_9_10_0_2 0
x_9_10_0_3 0
x_9_10_0_4 0
x_9_10_0_5 0
x_9_10_1_0 0
x_9_10_1_1 0
x_9_10_1_2 0
x_9_10_1_3 0
x_9_10_1_4 0
x_9_10_1_5 0
x_9_10_2_0 0
x_9_10_2_1 0
x_9_10_2_2 0
x_9_10_2_3 6.64333825143356e-07
x_9_10_2_4 0
x_9_10_2_5 0
